p cnf 25 20
7 -3 -15 0
-3 -20 12 0
-2 22 -5 0
-12 -16 -23 0
18 14 15 0
23 2 9 0
-4 -1 17 0
-5 -3 4 0
19 -17 -23 0
24 -20 -15 0
4 9 -15 0
24 2 17 0
-15 -14 -21 0
-8 -22 -12 0
-21 -20 1 0
6 25 -15 0
16 -5 4 0
2 9 -22 0
-7 25 -17 0
9 -24 15 0
